50
120
97
95
91
89
88
87
86
83
82
82
81
73
73
69
69
68
68
68
65
62
61
60
60
60
58
58
58
56
55
54
54
52
51
51
51
49
49
47
45
44
43
42
42
41
41
40
36
33
30
30
